NAME           NO_TITLE
*****************************************************
* REMARK: Generated by LSwriteMPSFile() routine for 
* a maximization type problem.
*
* The objective coefficients have flipped signs. 
* Interpret the objective value from the solution of
* this model accordingly.
*****************************************************
ROWS
 N  OBJ
 G  ROW1
 E  ROW2
 E  ROW3
 G  ROW4
 E  ROW5
 E  PROFIT
COLUMNS
    X  ROW1  1
    X  ROW2  1    
    X  ROW3  1
    X  ROW4  1    
    X  PROFIT  -30
*
    I  ROW2  -1
    I  ROW3  -1
    I  ROW5  -1
    I  PROFIT  -10    
*    
    L  ROW2  1    
    L  PROFIT  -5
*    
    S  ROW3  -1
    S  ROW4  -1    
    S  PROFIT  60
*    
    Y  ROW5  1
    Y  PROFIT  9
*    
    E  ROW5  1
    E  PROFIT  -10
*
    Z  OBJ  -1
    Z  PROFIT  -1    
RHS
    RHS1      ROW1  1
    RHS1      ROW2  63
BOUNDS
ENDATA
